
===== New CPLEX run =====
Instance: /home/yorig/tuner/mpils-tests/instances/miplib/easy/supportcase33.mps
Config: /scratch/yorig/mpils-results-grid-seconds-5-watchdog-mip-start/easy/8proc/seed-4/10_supportcase33_seed-4_20260504_032501/expansion/config_param_CPXPARAM_MIP_Limits_ProbeTime_2_iter_1.prm
========================

Selected objective sense:  MINIMIZE
Selected objective  name:  obj
Selected RHS        name:  rhs
Selected bound      name:  bnd
Wall watchdog: enabled factor=1 grace=1 limit=6 seconds
Version identifier: 22.1.2.0 | 2024-11-26 | 0edbb82fd
CPXPARAM_Threads                                 8
CPXPARAM_Parallel                                1
CPXPARAM_MIP_Cuts_Cliques                        3
CPXPARAM_MIP_Cuts_Implied                        -1
CPXPARAM_MIP_Cuts_GUBCovers                      -1
CPXPARAM_MIP_Limits_GomoryCand                   800
CPXPARAM_MIP_Cuts_Gomory                         2
CPXPARAM_MIP_Cuts_PathCut                        -1
CPXPARAM_MIP_Cuts_MIRCut                         2
CPXPARAM_MIP_Cuts_Disjunctive                    3
CPXPARAM_Emphasis_MIP                            4
CPXPARAM_TimeLimit                               5
CPXPARAM_MIP_Limits_ProbeTime                    2
Found incumbent of value 0.000000 after 0.00 sec. (2.20 ticks)
Tried aggregator 2 times.
MIP Presolve eliminated 17556 rows and 13423 columns.
MIP Presolve modified 14568 coefficients.
Aggregator did 11 substitutions.
Reduced MIP has 2922 rows, 6763 columns, and 53605 nonzeros.
Reduced MIP has 6683 binaries, 80 generals, 0 SOSs, and 0 indicators.
Presolve time = 0.09 sec. (158.17 ticks)
Probing fixed 667 vars, tightened 0 bounds.
Probing changed sense of 39 constraints.
Probing time = 0.18 sec. (255.87 ticks)
Tried aggregator 2 times.
Detecting symmetries...
MIP Presolve eliminated 639 rows and 667 columns.
MIP Presolve modified 197 coefficients.
Aggregator did 7 substitutions.
Reduced MIP has 2276 rows, 6089 columns, and 46722 nonzeros.
Reduced MIP has 6009 binaries, 80 generals, 0 SOSs, and 0 indicators.
Presolve time = 0.03 sec. (37.79 ticks)
Probing fixed 17 vars, tightened 0 bounds.
Probing time = 0.17 sec. (256.45 ticks)
Cover probing fixed 0 vars, tightened 2 bounds.
Clique table members: 24375.
Tightened 2 constraints.
MIP emphasis: hidden feasible solutions.
MIP search method: dynamic search.
Parallel mode: deterministic, using up to 8 threads.
Root relaxation solution time = 0.05 sec. (103.28 ticks)

        Nodes                                         Cuts/
   Node  Left     Objective  IInf  Best Integer    Best Bound    ItCnt     Gap

*     0+    0                            0.0000    -1075.0000              --- 
      0     0     -462.8425   116        0.0000     -462.8425     1325     --- 
*     0+    0                         -115.0000     -462.8425           302.47%
      0     0     -445.6250   123     -115.0000     Cuts: 168     1807  287.50%
      0     0     -440.0000   102     -115.0000     Cuts: 166     2270  282.61%
*     0+    0                         -245.0000     -440.0000            79.59%
      0     0     -440.0000   112     -245.0000      Cuts: 91     2873   79.59%
      0     0     -440.0000    80     -245.0000      Cuts: 12     3139   79.59%
      0     0     -440.0000    94     -245.0000     Cuts: 159     3642   79.59%
Detecting symmetries...
*     0+    0                         -275.0000     -440.0000            60.00%
Detecting symmetries...
      0     2     -440.0000    68     -275.0000     -440.0000     3642   60.00%
Elapsed time = 2.04 sec. (3322.45 ticks, tree = 0.02 MB, solutions = 3)
      9     4     -435.4930   103     -275.0000     -440.0000     6210   60.00%
*    18+    1                         -295.0000     -440.0000            49.15%
     62    32     -438.6194    80     -295.0000     -440.0000    16641   49.15%
    157    73     -356.9048   125     -295.0000     -440.0000    26804   49.15%
    204   114     -315.4520    54     -295.0000     -440.0000    34642   49.15%
    271   151     -339.1318   115     -295.0000     -440.0000    40165   49.15%
*   352   167      integral     0     -320.0000     -440.0000    44755   37.50%
    419   218     -336.4286   106     -320.0000     -440.0000    51713   37.50%
    570   259     -335.0000    47     -320.0000     -440.0000    60734   37.50%
    761   358     -385.0000    65     -320.0000     -435.0000    75108   35.94%
    929   472     -365.0000    41     -320.0000     -435.0000    95929   35.94%
   1653   852     -325.0000    29     -320.0000     -420.0000   156435   31.25%
Elapsed time = 4.01 sec. (6450.56 ticks, tree = 2.39 MB, solutions = 5)
   2291  1317     -371.0329    60     -320.0000     -405.0000   220005   26.56%

Clique cuts applied:  12
Cover cuts applied:  81
Mixed integer rounding cuts applied:  145
Zero-half cuts applied:  13
Gomory fractional cuts applied:  2
Disjunctive cuts applied:  2
Cone linearizations applied:  0

Root node processing (before b&c):
  Real time             =    2.01 sec. (3295.04 ticks)
Parallel b&c, 8 threads:
  Real time             =    3.00 sec. (4721.71 ticks)
  Sync time (average)   =    0.57 sec.
  Wait time (average)   =    0.00 sec.
                          ------------
Total (root+branch&cut) =    5.01 sec. (8016.75 ticks)
Gap: 26.56%
Upper bound: -320
Lower bound: -405
Termination status: Normal
End of CPLEX run. Time: 5.01211 seconds

===== New CPLEX run =====
Instance: /home/yorig/tuner/mpils-tests/instances/miplib/easy/supportcase33.mps
Config: /scratch/yorig/mpils-results-grid-seconds-5-watchdog-mip-start/easy/8proc/seed-4/10_supportcase33_seed-4_20260504_032501/expansion/config_param_CPXPARAM_MIP_Limits_ProbeTime_5_iter_1.prm
========================

Selected objective sense:  MINIMIZE
Selected objective  name:  obj
Selected RHS        name:  rhs
Selected bound      name:  bnd
Wall watchdog: enabled factor=1 grace=1 limit=6 seconds
Version identifier: 22.1.2.0 | 2024-11-26 | 0edbb82fd
CPXPARAM_Threads                                 8
CPXPARAM_Parallel                                1
CPXPARAM_MIP_Cuts_Cliques                        3
CPXPARAM_MIP_Cuts_Implied                        -1
CPXPARAM_MIP_Cuts_GUBCovers                      -1
CPXPARAM_MIP_Limits_GomoryCand                   800
CPXPARAM_MIP_Cuts_Gomory                         2
CPXPARAM_MIP_Cuts_PathCut                        -1
CPXPARAM_MIP_Cuts_MIRCut                         2
CPXPARAM_MIP_Cuts_Disjunctive                    3
CPXPARAM_Emphasis_MIP                            4
CPXPARAM_TimeLimit                               5
CPXPARAM_MIP_Limits_ProbeTime                    5
Found incumbent of value 0.000000 after 0.00 sec. (2.20 ticks)
Tried aggregator 2 times.
MIP Presolve eliminated 17556 rows and 13423 columns.
MIP Presolve modified 14568 coefficients.
Aggregator did 11 substitutions.
Reduced MIP has 2922 rows, 6763 columns, and 53605 nonzeros.
Reduced MIP has 6683 binaries, 80 generals, 0 SOSs, and 0 indicators.
Presolve time = 0.09 sec. (158.17 ticks)
Probing fixed 667 vars, tightened 0 bounds.
Probing changed sense of 39 constraints.
Probing time = 0.17 sec. (255.87 ticks)
Tried aggregator 2 times.
Detecting symmetries...
MIP Presolve eliminated 639 rows and 667 columns.
MIP Presolve modified 197 coefficients.
Aggregator did 7 substitutions.
Reduced MIP has 2276 rows, 6089 columns, and 46722 nonzeros.
Reduced MIP has 6009 binaries, 80 generals, 0 SOSs, and 0 indicators.
Presolve time = 0.03 sec. (37.79 ticks)
Probing fixed 17 vars, tightened 0 bounds.
Probing time = 0.19 sec. (256.45 ticks)
Cover probing fixed 0 vars, tightened 2 bounds.
Clique table members: 24375.
Tightened 2 constraints.
MIP emphasis: hidden feasible solutions.
MIP search method: dynamic search.
Parallel mode: deterministic, using up to 8 threads.
Root relaxation solution time = 0.05 sec. (103.28 ticks)

        Nodes                                         Cuts/
   Node  Left     Objective  IInf  Best Integer    Best Bound    ItCnt     Gap

*     0+    0                            0.0000    -1075.0000              --- 
      0     0     -462.8425   116        0.0000     -462.8425     1325     --- 
*     0+    0                         -115.0000     -462.8425           302.47%
      0     0     -445.6250   123     -115.0000     Cuts: 168     1807  287.50%
      0     0     -440.0000   102     -115.0000     Cuts: 166     2270  282.61%
*     0+    0                         -245.0000     -440.0000            79.59%
      0     0     -440.0000   112     -245.0000      Cuts: 91     2873   79.59%
      0     0     -440.0000    80     -245.0000      Cuts: 12     3139   79.59%
      0     0     -440.0000    94     -245.0000     Cuts: 159     3642   79.59%
Detecting symmetries...
*     0+    0                         -275.0000     -440.0000            60.00%
Detecting symmetries...
      0     2     -440.0000    68     -275.0000     -440.0000     3642   60.00%
Elapsed time = 2.04 sec. (3322.45 ticks, tree = 0.02 MB, solutions = 3)
      9     4     -435.4930   103     -275.0000     -440.0000     6210   60.00%
*    18+    1                         -295.0000     -440.0000            49.15%
     62    32     -438.6194    80     -295.0000     -440.0000    16641   49.15%
    157    73     -356.9048   125     -295.0000     -440.0000    26804   49.15%
    204   114     -315.4520    54     -295.0000     -440.0000    34642   49.15%
    271   151     -339.1318   115     -295.0000     -440.0000    40165   49.15%
*   352   167      integral     0     -320.0000     -440.0000    44755   37.50%
    419   218     -336.4286   106     -320.0000     -440.0000    51713   37.50%
    570   259     -335.0000    47     -320.0000     -440.0000    60734   37.50%
    761   358     -385.0000    65     -320.0000     -435.0000    75108   35.94%
    929   472     -365.0000    41     -320.0000     -435.0000    95929   35.94%
   1653   852     -325.0000    29     -320.0000     -420.0000   156435   31.25%
Elapsed time = 4.02 sec. (6450.56 ticks, tree = 2.39 MB, solutions = 5)
   2291  1317     -371.0329    60     -320.0000     -405.0000   220005   26.56%

Clique cuts applied:  12
Cover cuts applied:  81
Mixed integer rounding cuts applied:  141
Zero-half cuts applied:  13
Gomory fractional cuts applied:  2
Disjunctive cuts applied:  2
Cone linearizations applied:  0

Root node processing (before b&c):
  Real time             =    2.01 sec. (3295.04 ticks)
Parallel b&c, 8 threads:
  Real time             =    3.00 sec. (4674.34 ticks)
  Sync time (average)   =    0.58 sec.
  Wait time (average)   =    0.00 sec.
                          ------------
Total (root+branch&cut) =    5.01 sec. (7969.38 ticks)
Gap: 26.56%
Upper bound: -320
Lower bound: -405
Termination status: Normal
End of CPLEX run. Time: 5.0103 seconds

===== New CPLEX run =====
Instance: /home/yorig/tuner/mpils-tests/instances/miplib/easy/supportcase33.mps
Config: /scratch/yorig/mpils-results-grid-seconds-5-watchdog-mip-start/easy/8proc/seed-4/10_supportcase33_seed-4_20260504_032501/expansion/config_param_CPXPARAM_MIP_Limits_ProbeTime_10_iter_1.prm
========================

Selected objective sense:  MINIMIZE
Selected objective  name:  obj
Selected RHS        name:  rhs
Selected bound      name:  bnd
Wall watchdog: enabled factor=1 grace=1 limit=6 seconds
Version identifier: 22.1.2.0 | 2024-11-26 | 0edbb82fd
CPXPARAM_Threads                                 8
CPXPARAM_Parallel                                1
CPXPARAM_MIP_Cuts_Cliques                        3
CPXPARAM_MIP_Cuts_Implied                        -1
CPXPARAM_MIP_Cuts_GUBCovers                      -1
CPXPARAM_MIP_Limits_GomoryCand                   800
CPXPARAM_MIP_Cuts_Gomory                         2
CPXPARAM_MIP_Cuts_PathCut                        -1
CPXPARAM_MIP_Cuts_MIRCut                         2
CPXPARAM_MIP_Cuts_Disjunctive                    3
CPXPARAM_Emphasis_MIP                            4
CPXPARAM_TimeLimit                               5
CPXPARAM_MIP_Limits_ProbeTime                    10
Found incumbent of value 0.000000 after 0.00 sec. (2.20 ticks)
Tried aggregator 2 times.
MIP Presolve eliminated 17556 rows and 13423 columns.
MIP Presolve modified 14568 coefficients.
Aggregator did 11 substitutions.
Reduced MIP has 2922 rows, 6763 columns, and 53605 nonzeros.
Reduced MIP has 6683 binaries, 80 generals, 0 SOSs, and 0 indicators.
Presolve time = 0.09 sec. (158.17 ticks)
Probing fixed 667 vars, tightened 0 bounds.
Probing changed sense of 39 constraints.
Probing time = 0.18 sec. (255.87 ticks)
Tried aggregator 2 times.
Detecting symmetries...
MIP Presolve eliminated 639 rows and 667 columns.
MIP Presolve modified 197 coefficients.
Aggregator did 7 substitutions.
Reduced MIP has 2276 rows, 6089 columns, and 46722 nonzeros.
Reduced MIP has 6009 binaries, 80 generals, 0 SOSs, and 0 indicators.
Presolve time = 0.03 sec. (37.79 ticks)
Probing fixed 17 vars, tightened 0 bounds.
Probing time = 0.18 sec. (256.45 ticks)
Cover probing fixed 0 vars, tightened 2 bounds.
Clique table members: 24375.
Tightened 2 constraints.
MIP emphasis: hidden feasible solutions.
MIP search method: dynamic search.
Parallel mode: deterministic, using up to 8 threads.
Root relaxation solution time = 0.05 sec. (103.28 ticks)

        Nodes                                         Cuts/
   Node  Left     Objective  IInf  Best Integer    Best Bound    ItCnt     Gap

*     0+    0                            0.0000    -1075.0000              --- 
      0     0     -462.8425   116        0.0000     -462.8425     1325     --- 
*     0+    0                         -115.0000     -462.8425           302.47%
      0     0     -445.6250   123     -115.0000     Cuts: 168     1807  287.50%
      0     0     -440.0000   102     -115.0000     Cuts: 166     2270  282.61%
*     0+    0                         -245.0000     -440.0000            79.59%
      0     0     -440.0000   112     -245.0000      Cuts: 91     2873   79.59%
      0     0     -440.0000    80     -245.0000      Cuts: 12     3139   79.59%
      0     0     -440.0000    94     -245.0000     Cuts: 159     3642   79.59%
Detecting symmetries...
*     0+    0                         -275.0000     -440.0000            60.00%
Detecting symmetries...
      0     2     -440.0000    68     -275.0000     -440.0000     3642   60.00%
Elapsed time = 2.04 sec. (3322.45 ticks, tree = 0.02 MB, solutions = 3)
      9     4     -435.4930   103     -275.0000     -440.0000     6210   60.00%
*    18+    1                         -295.0000     -440.0000            49.15%
     62    32     -438.6194    80     -295.0000     -440.0000    16641   49.15%
    157    73     -356.9048   125     -295.0000     -440.0000    26804   49.15%
    204   114     -315.4520    54     -295.0000     -440.0000    34642   49.15%
    271   151     -339.1318   115     -295.0000     -440.0000    40165   49.15%
*   352   167      integral     0     -320.0000     -440.0000    44755   37.50%
    419   218     -336.4286   106     -320.0000     -440.0000    51713   37.50%
    570   259     -335.0000    47     -320.0000     -440.0000    60734   37.50%
    761   358     -385.0000    65     -320.0000     -435.0000    75108   35.94%
    929   472     -365.0000    41     -320.0000     -435.0000    95929   35.94%
   1653   852     -325.0000    29     -320.0000     -420.0000   156435   31.25%
Elapsed time = 4.01 sec. (6450.56 ticks, tree = 2.39 MB, solutions = 5)
   2291  1317     -371.0329    60     -320.0000     -405.0000   220005   26.56%

Clique cuts applied:  11
Cover cuts applied:  81
Mixed integer rounding cuts applied:  139
Zero-half cuts applied:  13
Gomory fractional cuts applied:  2
Disjunctive cuts applied:  2
Cone linearizations applied:  0

Root node processing (before b&c):
  Real time             =    2.00 sec. (3295.04 ticks)
Parallel b&c, 8 threads:
  Real time             =    3.00 sec. (4707.31 ticks)
  Sync time (average)   =    0.58 sec.
  Wait time (average)   =    0.00 sec.
                          ------------
Total (root+branch&cut) =    5.01 sec. (8002.35 ticks)
Gap: 26.56%
Upper bound: -320
Lower bound: -405
Termination status: Normal
End of CPLEX run. Time: 5.01098 seconds

===== New CPLEX run =====
Instance: /home/yorig/tuner/mpils-tests/instances/miplib/easy/supportcase33.mps
Config: /scratch/yorig/mpils-results-grid-seconds-5-watchdog-mip-start/easy/8proc/seed-4/10_supportcase33_seed-4_20260504_032501/expansion/config_param_CPXPARAM_MIP_Limits_ProbeTime_20_iter_1.prm
========================

Selected objective sense:  MINIMIZE
Selected objective  name:  obj
Selected RHS        name:  rhs
Selected bound      name:  bnd
Wall watchdog: enabled factor=1 grace=1 limit=6 seconds
Version identifier: 22.1.2.0 | 2024-11-26 | 0edbb82fd
CPXPARAM_Threads                                 8
CPXPARAM_Parallel                                1
CPXPARAM_MIP_Cuts_Cliques                        3
CPXPARAM_MIP_Cuts_Implied                        -1
CPXPARAM_MIP_Cuts_GUBCovers                      -1
CPXPARAM_MIP_Limits_GomoryCand                   800
CPXPARAM_MIP_Cuts_Gomory                         2
CPXPARAM_MIP_Cuts_PathCut                        -1
CPXPARAM_MIP_Cuts_MIRCut                         2
CPXPARAM_MIP_Cuts_Disjunctive                    3
CPXPARAM_Emphasis_MIP                            4
CPXPARAM_TimeLimit                               5
CPXPARAM_MIP_Limits_ProbeTime                    20
Found incumbent of value 0.000000 after 0.00 sec. (2.20 ticks)
Tried aggregator 2 times.
MIP Presolve eliminated 17556 rows and 13423 columns.
MIP Presolve modified 14568 coefficients.
Aggregator did 11 substitutions.
Reduced MIP has 2922 rows, 6763 columns, and 53605 nonzeros.
Reduced MIP has 6683 binaries, 80 generals, 0 SOSs, and 0 indicators.
Presolve time = 0.09 sec. (158.17 ticks)
Probing fixed 667 vars, tightened 0 bounds.
Probing changed sense of 39 constraints.
Probing time = 0.17 sec. (255.87 ticks)
Tried aggregator 2 times.
Detecting symmetries...
MIP Presolve eliminated 639 rows and 667 columns.
MIP Presolve modified 197 coefficients.
Aggregator did 7 substitutions.
Reduced MIP has 2276 rows, 6089 columns, and 46722 nonzeros.
Reduced MIP has 6009 binaries, 80 generals, 0 SOSs, and 0 indicators.
Presolve time = 0.03 sec. (37.79 ticks)
Probing fixed 17 vars, tightened 0 bounds.
Probing time = 0.18 sec. (256.45 ticks)
Cover probing fixed 0 vars, tightened 2 bounds.
Clique table members: 24375.
Tightened 2 constraints.
MIP emphasis: hidden feasible solutions.
MIP search method: dynamic search.
Parallel mode: deterministic, using up to 8 threads.
Root relaxation solution time = 0.05 sec. (103.28 ticks)

        Nodes                                         Cuts/
   Node  Left     Objective  IInf  Best Integer    Best Bound    ItCnt     Gap

*     0+    0                            0.0000    -1075.0000              --- 
      0     0     -462.8425   116        0.0000     -462.8425     1325     --- 
*     0+    0                         -115.0000     -462.8425           302.47%
      0     0     -445.6250   123     -115.0000     Cuts: 168     1807  287.50%
      0     0     -440.0000   102     -115.0000     Cuts: 166     2270  282.61%
*     0+    0                         -245.0000     -440.0000            79.59%
      0     0     -440.0000   112     -245.0000      Cuts: 91     2873   79.59%
      0     0     -440.0000    80     -245.0000      Cuts: 12     3139   79.59%
      0     0     -440.0000    94     -245.0000     Cuts: 159     3642   79.59%
Detecting symmetries...
*     0+    0                         -275.0000     -440.0000            60.00%
Detecting symmetries...
      0     2     -440.0000    68     -275.0000     -440.0000     3642   60.00%
Elapsed time = 2.03 sec. (3322.45 ticks, tree = 0.02 MB, solutions = 3)
      9     4     -435.4930   103     -275.0000     -440.0000     6210   60.00%
*    18+    1                         -295.0000     -440.0000            49.15%
     62    32     -438.6194    80     -295.0000     -440.0000    16641   49.15%
    157    73     -356.9048   125     -295.0000     -440.0000    26804   49.15%
    204   114     -315.4520    54     -295.0000     -440.0000    34642   49.15%
    271   151     -339.1318   115     -295.0000     -440.0000    40165   49.15%
*   352   167      integral     0     -320.0000     -440.0000    44755   37.50%
    419   218     -336.4286   106     -320.0000     -440.0000    51713   37.50%
    570   259     -335.0000    47     -320.0000     -440.0000    60734   37.50%
    761   358     -385.0000    65     -320.0000     -435.0000    75108   35.94%
    929   472     -365.0000    41     -320.0000     -435.0000    95929   35.94%
   1653   852     -325.0000    29     -320.0000     -420.0000   156435   31.25%
Elapsed time = 4.01 sec. (6450.56 ticks, tree = 2.39 MB, solutions = 5)
   2291  1317     -371.0329    60     -320.0000     -405.0000   220005   26.56%

Clique cuts applied:  12
Cover cuts applied:  81
Mixed integer rounding cuts applied:  145
Zero-half cuts applied:  13
Gomory fractional cuts applied:  2
Disjunctive cuts applied:  2
Cone linearizations applied:  0

Root node processing (before b&c):
  Real time             =    2.00 sec. (3295.04 ticks)
Parallel b&c, 8 threads:
  Real time             =    3.01 sec. (4719.88 ticks)
  Sync time (average)   =    0.57 sec.
  Wait time (average)   =    0.00 sec.
                          ------------
Total (root+branch&cut) =    5.01 sec. (8014.92 ticks)
Gap: 26.56%
Upper bound: -320
Lower bound: -405
Termination status: Normal
End of CPLEX run. Time: 5.01199 seconds

===== New CPLEX run =====
Instance: /home/yorig/tuner/mpils-tests/instances/miplib/easy/supportcase33.mps
Config: /scratch/yorig/mpils-results-grid-seconds-5-watchdog-mip-start/easy/8proc/seed-4/10_supportcase33_seed-4_20260504_032501/expansion/config_param_CPXPARAM_MIP_Limits_ProbeTime_30_iter_1.prm
========================

Selected objective sense:  MINIMIZE
Selected objective  name:  obj
Selected RHS        name:  rhs
Selected bound      name:  bnd
Wall watchdog: enabled factor=1 grace=1 limit=6 seconds
Version identifier: 22.1.2.0 | 2024-11-26 | 0edbb82fd
CPXPARAM_Threads                                 8
CPXPARAM_Parallel                                1
CPXPARAM_MIP_Cuts_Cliques                        3
CPXPARAM_MIP_Cuts_Implied                        -1
CPXPARAM_MIP_Cuts_GUBCovers                      -1
CPXPARAM_MIP_Limits_GomoryCand                   800
CPXPARAM_MIP_Cuts_Gomory                         2
CPXPARAM_MIP_Cuts_PathCut                        -1
CPXPARAM_MIP_Cuts_MIRCut                         2
CPXPARAM_MIP_Cuts_Disjunctive                    3
CPXPARAM_Emphasis_MIP                            4
CPXPARAM_TimeLimit                               5
CPXPARAM_MIP_Limits_ProbeTime                    30
Found incumbent of value 0.000000 after 0.00 sec. (2.20 ticks)
Tried aggregator 2 times.
MIP Presolve eliminated 17556 rows and 13423 columns.
MIP Presolve modified 14568 coefficients.
Aggregator did 11 substitutions.
Reduced MIP has 2922 rows, 6763 columns, and 53605 nonzeros.
Reduced MIP has 6683 binaries, 80 generals, 0 SOSs, and 0 indicators.
Presolve time = 0.09 sec. (158.17 ticks)
Probing fixed 667 vars, tightened 0 bounds.
Probing changed sense of 39 constraints.
Probing time = 0.18 sec. (255.87 ticks)
Tried aggregator 2 times.
Detecting symmetries...
MIP Presolve eliminated 639 rows and 667 columns.
MIP Presolve modified 197 coefficients.
Aggregator did 7 substitutions.
Reduced MIP has 2276 rows, 6089 columns, and 46722 nonzeros.
Reduced MIP has 6009 binaries, 80 generals, 0 SOSs, and 0 indicators.
Presolve time = 0.03 sec. (37.79 ticks)
Probing fixed 17 vars, tightened 0 bounds.
Probing time = 0.17 sec. (256.45 ticks)
Cover probing fixed 0 vars, tightened 2 bounds.
Clique table members: 24375.
Tightened 2 constraints.
MIP emphasis: hidden feasible solutions.
MIP search method: dynamic search.
Parallel mode: deterministic, using up to 8 threads.
Root relaxation solution time = 0.05 sec. (103.28 ticks)

        Nodes                                         Cuts/
   Node  Left     Objective  IInf  Best Integer    Best Bound    ItCnt     Gap

*     0+    0                            0.0000    -1075.0000              --- 
      0     0     -462.8425   116        0.0000     -462.8425     1325     --- 
*     0+    0                         -115.0000     -462.8425           302.47%
      0     0     -445.6250   123     -115.0000     Cuts: 168     1807  287.50%
      0     0     -440.0000   102     -115.0000     Cuts: 166     2270  282.61%
*     0+    0                         -245.0000     -440.0000            79.59%
      0     0     -440.0000   112     -245.0000      Cuts: 91     2873   79.59%
      0     0     -440.0000    80     -245.0000      Cuts: 12     3139   79.59%
      0     0     -440.0000    94     -245.0000     Cuts: 159     3642   79.59%
Detecting symmetries...
*     0+    0                         -275.0000     -440.0000            60.00%
Detecting symmetries...
      0     2     -440.0000    68     -275.0000     -440.0000     3642   60.00%
Elapsed time = 2.02 sec. (3322.45 ticks, tree = 0.02 MB, solutions = 3)
      9     4     -435.4930   103     -275.0000     -440.0000     6210   60.00%
*    18+    1                         -295.0000     -440.0000            49.15%
     62    32     -438.6194    80     -295.0000     -440.0000    16641   49.15%
    157    73     -356.9048   125     -295.0000     -440.0000    26804   49.15%
    204   114     -315.4520    54     -295.0000     -440.0000    34642   49.15%
    271   151     -339.1318   115     -295.0000     -440.0000    40165   49.15%
*   352   167      integral     0     -320.0000     -440.0000    44755   37.50%
    419   218     -336.4286   106     -320.0000     -440.0000    51713   37.50%
    570   259     -335.0000    47     -320.0000     -440.0000    60734   37.50%
    761   358     -385.0000    65     -320.0000     -435.0000    75108   35.94%
    929   472     -365.0000    41     -320.0000     -435.0000    95929   35.94%
   1653   852     -325.0000    29     -320.0000     -420.0000   156435   31.25%
Elapsed time = 4.01 sec. (6450.56 ticks, tree = 2.39 MB, solutions = 5)
   2291  1317     -371.0329    60     -320.0000     -405.0000   220005   26.56%

Clique cuts applied:  11
Cover cuts applied:  81
Mixed integer rounding cuts applied:  145
Zero-half cuts applied:  13
Gomory fractional cuts applied:  2
Disjunctive cuts applied:  2
Cone linearizations applied:  0

Root node processing (before b&c):
  Real time             =    1.99 sec. (3295.04 ticks)
Parallel b&c, 8 threads:
  Real time             =    3.02 sec. (4703.84 ticks)
  Sync time (average)   =    0.59 sec.
  Wait time (average)   =    0.00 sec.
                          ------------
Total (root+branch&cut) =    5.01 sec. (7998.88 ticks)
Gap: 26.56%
Upper bound: -320
Lower bound: -405
Termination status: Normal
End of CPLEX run. Time: 5.01126 seconds

===== New CPLEX run =====
Instance: /home/yorig/tuner/mpils-tests/instances/miplib/easy/supportcase33.mps
Config: /scratch/yorig/mpils-results-grid-seconds-5-watchdog-mip-start/easy/8proc/seed-4/10_supportcase33_seed-4_20260504_032501/expansion/config_param_CPXPARAM_MIP_Limits_ProbeTime_40_iter_1.prm
========================

Selected objective sense:  MINIMIZE
Selected objective  name:  obj
Selected RHS        name:  rhs
Selected bound      name:  bnd
Wall watchdog: enabled factor=1 grace=1 limit=6 seconds
Version identifier: 22.1.2.0 | 2024-11-26 | 0edbb82fd
CPXPARAM_Threads                                 8
CPXPARAM_Parallel                                1
CPXPARAM_MIP_Cuts_Cliques                        3
CPXPARAM_MIP_Cuts_Implied                        -1
CPXPARAM_MIP_Cuts_GUBCovers                      -1
CPXPARAM_MIP_Limits_GomoryCand                   800
CPXPARAM_MIP_Cuts_Gomory                         2
CPXPARAM_MIP_Cuts_PathCut                        -1
CPXPARAM_MIP_Cuts_MIRCut                         2
CPXPARAM_MIP_Cuts_Disjunctive                    3
CPXPARAM_Emphasis_MIP                            4
CPXPARAM_TimeLimit                               5
CPXPARAM_MIP_Limits_ProbeTime                    40
Found incumbent of value 0.000000 after 0.00 sec. (2.20 ticks)
Tried aggregator 2 times.
MIP Presolve eliminated 17556 rows and 13423 columns.
MIP Presolve modified 14568 coefficients.
Aggregator did 11 substitutions.
Reduced MIP has 2922 rows, 6763 columns, and 53605 nonzeros.
Reduced MIP has 6683 binaries, 80 generals, 0 SOSs, and 0 indicators.
Presolve time = 0.09 sec. (158.17 ticks)
Probing fixed 667 vars, tightened 0 bounds.
Probing changed sense of 39 constraints.
Probing time = 0.17 sec. (255.87 ticks)
Tried aggregator 2 times.
Detecting symmetries...
MIP Presolve eliminated 639 rows and 667 columns.
MIP Presolve modified 197 coefficients.
Aggregator did 7 substitutions.
Reduced MIP has 2276 rows, 6089 columns, and 46722 nonzeros.
Reduced MIP has 6009 binaries, 80 generals, 0 SOSs, and 0 indicators.
Presolve time = 0.03 sec. (37.79 ticks)
Probing fixed 17 vars, tightened 0 bounds.
Probing time = 0.19 sec. (256.45 ticks)
Cover probing fixed 0 vars, tightened 2 bounds.
Clique table members: 24375.
Tightened 2 constraints.
MIP emphasis: hidden feasible solutions.
MIP search method: dynamic search.
Parallel mode: deterministic, using up to 8 threads.
Root relaxation solution time = 0.05 sec. (103.28 ticks)

        Nodes                                         Cuts/
   Node  Left     Objective  IInf  Best Integer    Best Bound    ItCnt     Gap

*     0+    0                            0.0000    -1075.0000              --- 
      0     0     -462.8425   116        0.0000     -462.8425     1325     --- 
*     0+    0                         -115.0000     -462.8425           302.47%
      0     0     -445.6250   123     -115.0000     Cuts: 168     1807  287.50%
      0     0     -440.0000   102     -115.0000     Cuts: 166     2270  282.61%
*     0+    0                         -245.0000     -440.0000            79.59%
      0     0     -440.0000   112     -245.0000      Cuts: 91     2873   79.59%
      0     0     -440.0000    80     -245.0000      Cuts: 12     3139   79.59%
      0     0     -440.0000    94     -245.0000     Cuts: 159     3642   79.59%
Detecting symmetries...
*     0+    0                         -275.0000     -440.0000            60.00%
Detecting symmetries...
      0     2     -440.0000    68     -275.0000     -440.0000     3642   60.00%
Elapsed time = 2.06 sec. (3322.45 ticks, tree = 0.02 MB, solutions = 3)
      9     4     -435.4930   103     -275.0000     -440.0000     6210   60.00%
*    18+    1                         -295.0000     -440.0000            49.15%
     62    32     -438.6194    80     -295.0000     -440.0000    16641   49.15%
    157    73     -356.9048   125     -295.0000     -440.0000    26804   49.15%
    204   114     -315.4520    54     -295.0000     -440.0000    34642   49.15%
    271   151     -339.1318   115     -295.0000     -440.0000    40165   49.15%
*   352   167      integral     0     -320.0000     -440.0000    44755   37.50%
    419   218     -336.4286   106     -320.0000     -440.0000    51713   37.50%
    570   259     -335.0000    47     -320.0000     -440.0000    60734   37.50%
    761   358     -385.0000    65     -320.0000     -435.0000    75108   35.94%
    929   472     -365.0000    41     -320.0000     -435.0000    95929   35.94%
   1653   852     -325.0000    29     -320.0000     -420.0000   156435   31.25%
Elapsed time = 4.04 sec. (6450.56 ticks, tree = 2.39 MB, solutions = 5)
   2291  1317     -371.0329    60     -320.0000     -405.0000   220005   26.56%

Clique cuts applied:  11
Cover cuts applied:  81
Mixed integer rounding cuts applied:  141
Zero-half cuts applied:  13
Gomory fractional cuts applied:  2
Disjunctive cuts applied:  2
Cone linearizations applied:  0

Root node processing (before b&c):
  Real time             =    2.02 sec. (3295.04 ticks)
Parallel b&c, 8 threads:
  Real time             =    2.98 sec. (4629.52 ticks)
  Sync time (average)   =    0.58 sec.
  Wait time (average)   =    0.00 sec.
                          ------------
Total (root+branch&cut) =    5.01 sec. (7924.56 ticks)
Gap: 26.56%
Upper bound: -320
Lower bound: -405
Termination status: Normal
End of CPLEX run. Time: 5.00855 seconds

===== New CPLEX run =====
Instance: /home/yorig/tuner/mpils-tests/instances/miplib/easy/supportcase33.mps
Config: /scratch/yorig/mpils-results-grid-seconds-5-watchdog-mip-start/easy/8proc/seed-4/10_supportcase33_seed-4_20260504_032501/expansion/config_param_CPXPARAM_MIP_Limits_ProbeTime_50_iter_1.prm
========================

Selected objective sense:  MINIMIZE
Selected objective  name:  obj
Selected RHS        name:  rhs
Selected bound      name:  bnd
Wall watchdog: enabled factor=1 grace=1 limit=6 seconds
Version identifier: 22.1.2.0 | 2024-11-26 | 0edbb82fd
CPXPARAM_Threads                                 8
CPXPARAM_Parallel                                1
CPXPARAM_MIP_Cuts_Cliques                        3
CPXPARAM_MIP_Cuts_Implied                        -1
CPXPARAM_MIP_Cuts_GUBCovers                      -1
CPXPARAM_MIP_Limits_GomoryCand                   800
CPXPARAM_MIP_Cuts_Gomory                         2
CPXPARAM_MIP_Cuts_PathCut                        -1
CPXPARAM_MIP_Cuts_MIRCut                         2
CPXPARAM_MIP_Cuts_Disjunctive                    3
CPXPARAM_Emphasis_MIP                            4
CPXPARAM_TimeLimit                               5
CPXPARAM_MIP_Limits_ProbeTime                    50
Found incumbent of value 0.000000 after 0.00 sec. (2.20 ticks)
Tried aggregator 2 times.
MIP Presolve eliminated 17556 rows and 13423 columns.
MIP Presolve modified 14568 coefficients.
Aggregator did 11 substitutions.
Reduced MIP has 2922 rows, 6763 columns, and 53605 nonzeros.
Reduced MIP has 6683 binaries, 80 generals, 0 SOSs, and 0 indicators.
Presolve time = 0.09 sec. (158.17 ticks)
Probing fixed 667 vars, tightened 0 bounds.
Probing changed sense of 39 constraints.
Probing time = 0.18 sec. (255.87 ticks)
Tried aggregator 2 times.
Detecting symmetries...
MIP Presolve eliminated 639 rows and 667 columns.
MIP Presolve modified 197 coefficients.
Aggregator did 7 substitutions.
Reduced MIP has 2276 rows, 6089 columns, and 46722 nonzeros.
Reduced MIP has 6009 binaries, 80 generals, 0 SOSs, and 0 indicators.
Presolve time = 0.03 sec. (37.79 ticks)
Probing fixed 17 vars, tightened 0 bounds.
Probing time = 0.17 sec. (256.45 ticks)
Cover probing fixed 0 vars, tightened 2 bounds.
Clique table members: 24375.
Tightened 2 constraints.
MIP emphasis: hidden feasible solutions.
MIP search method: dynamic search.
Parallel mode: deterministic, using up to 8 threads.
Root relaxation solution time = 0.05 sec. (103.28 ticks)

        Nodes                                         Cuts/
   Node  Left     Objective  IInf  Best Integer    Best Bound    ItCnt     Gap

*     0+    0                            0.0000    -1075.0000              --- 
      0     0     -462.8425   116        0.0000     -462.8425     1325     --- 
*     0+    0                         -115.0000     -462.8425           302.47%
      0     0     -445.6250   123     -115.0000     Cuts: 168     1807  287.50%
      0     0     -440.0000   102     -115.0000     Cuts: 166     2270  282.61%
*     0+    0                         -245.0000     -440.0000            79.59%
      0     0     -440.0000   112     -245.0000      Cuts: 91     2873   79.59%
      0     0     -440.0000    80     -245.0000      Cuts: 12     3139   79.59%
      0     0     -440.0000    94     -245.0000     Cuts: 159     3642   79.59%
Detecting symmetries...
*     0+    0                         -275.0000     -440.0000            60.00%
Detecting symmetries...
      0     2     -440.0000    68     -275.0000     -440.0000     3642   60.00%
Elapsed time = 2.04 sec. (3322.45 ticks, tree = 0.02 MB, solutions = 3)
      9     4     -435.4930   103     -275.0000     -440.0000     6210   60.00%
*    18+    1                         -295.0000     -440.0000            49.15%
     62    32     -438.6194    80     -295.0000     -440.0000    16641   49.15%
    157    73     -356.9048   125     -295.0000     -440.0000    26804   49.15%
    204   114     -315.4520    54     -295.0000     -440.0000    34642   49.15%
    271   151     -339.1318   115     -295.0000     -440.0000    40165   49.15%
*   352   167      integral     0     -320.0000     -440.0000    44755   37.50%
    419   218     -336.4286   106     -320.0000     -440.0000    51713   37.50%
    570   259     -335.0000    47     -320.0000     -440.0000    60734   37.50%
    761   358     -385.0000    65     -320.0000     -435.0000    75108   35.94%
    929   472     -365.0000    41     -320.0000     -435.0000    95929   35.94%
   1653   852     -325.0000    29     -320.0000     -420.0000   156435   31.25%
Elapsed time = 4.01 sec. (6450.56 ticks, tree = 2.39 MB, solutions = 5)
   2291  1317     -371.0329    60     -320.0000     -405.0000   220005   26.56%

Clique cuts applied:  12
Cover cuts applied:  81
Mixed integer rounding cuts applied:  145
Zero-half cuts applied:  13
Gomory fractional cuts applied:  2
Disjunctive cuts applied:  2
Cone linearizations applied:  0

Root node processing (before b&c):
  Real time             =    2.00 sec. (3295.04 ticks)
Parallel b&c, 8 threads:
  Real time             =    3.00 sec. (4715.24 ticks)
  Sync time (average)   =    0.57 sec.
  Wait time (average)   =    0.00 sec.
                          ------------
Total (root+branch&cut) =    5.01 sec. (8010.27 ticks)
Gap: 26.56%
Upper bound: -320
Lower bound: -405
Termination status: Normal
End of CPLEX run. Time: 5.01078 seconds
